;; sat

(declare-const x1 sl.list.loc)
(declare-const x2 sl.list.loc)
(declare-const x3 sl.list.loc)
(declare-const x4 sl.list.loc)
(declare-const x5 sl.list.loc)
(declare-const x6 sl.list.loc)
(declare-const x7 sl.list.loc)
(declare-const x8 sl.list.loc)
(declare-const x9 sl.list.loc)
(declare-const x10 sl.list.loc)
(declare-const x11 sl.list.loc)
(declare-const x12 sl.list.loc)
(declare-const x13 sl.list.loc)
(declare-const x14 sl.list.loc)
(declare-const x15 sl.list.loc)
(declare-const x16 sl.list.loc)
(declare-const x17 sl.list.loc)
(declare-const x18 sl.list.loc)

(assert (and (sl.sepcon (sl.list.eq sl.list.null sl.list.null)
 (sl.sepcon (sl.sepcon (sl.sepcon (sl.sepcon (sl.sepcon (sl.sepcon (sl.sepcon (sl.sepcon (sl.sepcon (sl.sepcon (sl.sepcon (sl.sepcon (sl.sepcon (sl.sepcon (sl.sepcon (sl.sepcon (sl.sepcon (sl.list.next x5 x7)
 (sl.list.next x17 x3)
)
 (sl.list.next x13 x10)
)
 (sl.list.next x15 x2)
)
 (sl.list.seg x12 x8)
)
 (sl.list.next x7 x4)
)
 (sl.list.next x6 x3)
)
 (sl.list.next x16 x1)
)
 (sl.list.next x8 x6)
)
 (sl.list.next x1 x4)
)
 (sl.list.seg x11 x5)
)
 (sl.list.next x2 x12)
)
 (sl.list.seg x14 x17)
)
 (sl.list.next x10 x18)
)
 (sl.list.next x4 x11)
)
 (sl.list.next x3 x7)
)
 (sl.list.seg x9 x6)
)
 (sl.list.next x18 x5)
)
)
 (not (sl.sepcon (sl.sepcon (sl.sepcon (sl.sepcon (sl.sepcon (sl.sepcon (sl.sepcon (sl.sepcon (sl.sepcon (sl.list.seg x13 x10)
 (sl.list.seg x11 x5)
)
 (sl.list.seg x14 x17)
)
 (sl.list.seg x17 x3)
)
 (sl.list.seg x10 x18)
)
 (sl.list.seg x16 x1)
)
 (sl.list.seg x15 x6)
)
 (sl.list.seg x1 x4)
)
 (sl.list.seg x9 x7)
)
 (sl.list.seg x18 x11)
)
))
)

